46	12	4	26	
10	10	10	10

0	0	0	0	0	0	2	1	2
1	0	0	10	0	8	1	4
2	0	0	0	5	5	1	3
3	0	0	0	9	1	2	5	10
4	0	9	0	0	6	1	6
5	0	0	0	1	10	1	8
6	0	0	10	0	1	1	7
7	0	0	0	3	1	1	9
8	3	0	0	0	3	1	11
9	10	0	0	0	7	1	11
10	10	0	0	0	4	1	11
11	0	0	0	0	0	0
